<number of tasks>
50

<cycle time>
1000

<order strength>
0.197


<task times>
1 321
2 482
3 756
4 725
5 528
6 408
7 528
8 575
9 306
10 324
11 518
12 474
13 418
14 655
15 592
16 609
17 596
18 528
19 607
20 676
21 532
22 404
23 566
24 435
25 601
26 540
27 339
28 399
29 564
30 423
31 484
32 665
33 448
34 676
35 387
36 465
37 470
38 738
39 679
40 680
41 286
42 640
43 551
44 344
45 534
46 258
47 399
48 444
49 537
50 433

<precedence relations>
1,31
2,6
2,8
2,10
3,5
3,7
4,9
5,31
6,12
7,11
8,13
9,15
10,14
10,16
11,17
12,19
13,18
13,22
15,20
15,21
17,27
18,24
18,25
18,26
18,28
20,30
21,29
22,23
23,31
24,31
25,32
26,33
27,35
28,34
29,37
30,36
31,38
31,39
31,40
31,41
31,42
31,46
31,47
32,44
33,44
34,43
36,45
38,48
40,50
43,48
44,49

<end>
